(set-info :smt-lib-version 2.6)
(set-logic LIA)
(set-info
  :source |
 Generated by PSyCO 0.1
 More info in N. P. Lopes and J. Monteiro. Weakest Precondition Synthesis for
 Compiler Optimizations, VMCAI'14.
|)
(set-info :category "industrial")
(set-info :status sat)
(declare-fun W_S1_V4 () Bool)
(declare-fun W_S1_V1 () Bool)
(declare-fun R_E1_V4 () Bool)
(declare-fun R_E1_V2 () Bool)
(declare-fun R_E1_V3 () Bool)
(declare-fun R_S1_V4 () Bool)
(declare-fun R_S1_V2 () Bool)
(declare-fun R_S1_V3 () Bool)
(declare-fun R_S1_V1 () Bool)
(declare-fun DISJ_W_S1_R_E1 () Bool)
(declare-fun DISJ_W_S1_R_S1 () Bool)
(declare-fun W_S1_V3 () Bool)
(declare-fun W_S1_V2 () Bool)
(declare-fun R_E1_V1 () Bool)
(assert
 (let
 (($x1318
   (forall
    ((V3_0 Int) (V2_0 Int) 
     (V4_0 Int) (MW_S1_V1 Bool) 
     (MW_S1_V3 Bool) (MW_S1_V2 Bool) 
     (MW_S1_V4 Bool) (S1_V3_!438 Int) 
     (S1_V3_!444 Int) (S1_V3_!449 Int) 
     (S1_V4_!440 Int) (S1_V4_!446 Int) 
     (S1_V4_!451 Int) (S1_V1_!437 Int) 
     (S1_V1_!443 Int) (S1_V1_!448 Int) 
     (S1_V2_!439 Int) (S1_V2_!445 Int) 
     (S1_V2_!450 Int) (E1_!436 Int) 
     (E1_!441 Int) (E1_!442 Int) 
     (E1_!447 Int) (E1_!452 Int))
    (let ((?x881 (ite MW_S1_V4 S1_V4_!451 V4_0)))
    (let ((?x1226 (ite MW_S1_V4 S1_V4_!440 V4_0)))
    (let (($x839 (= ?x1226 ?x881)))
    (let ((?x584 (ite MW_S1_V2 S1_V2_!450 V2_0)))
    (let ((?x607 (ite MW_S1_V2 S1_V2_!439 V2_0)))
    (let (($x873 (= ?x607 ?x584)))
    (let ((?x1198 (ite MW_S1_V3 S1_V3_!449 V3_0)))
    (let ((?x795 (ite MW_S1_V3 S1_V3_!438 V3_0)))
    (let (($x872 (= ?x795 ?x1198)))
    (let ((?x1359 (+ (- 1) ?x584)))
    (let ((?x1272 (ite MW_S1_V1 S1_V1_!437 E1_!436)))
    (let (($x812 (= ?x1272 ?x1359)))
    (let (($x1112 (and $x812 $x872 $x873 $x839)))
    (let ((?x1130 (+ (- 1) V2_0)))
    (let ((?x1113 (ite MW_S1_V1 S1_V1_!443 ?x1130)))
    (let ((?x1114 (+ (- 1) ?x1113)))
    (let ((?x1105 (ite MW_S1_V1 S1_V1_!448 ?x1114)))
    (let ((?x739 (+ (- 1) ?x1105)))
    (let (($x1126 (<= E1_!452 ?x739)))
    (let (($x1128 (not $x1126)))
    (let ((?x1107 (+ 1 E1_!447)))
    (let (($x1081 (>= ?x1113 ?x1107)))
    (let ((?x1104 (+ 1 E1_!442)))
    (let (($x1117 (>= V2_0 ?x1104)))
    (let (($x1120 (<= V2_0 E1_!441)))
    (let (($x1116 (not $x1120)))
    (let ((?x1134 (+ (- 1) ?x607)))
    (let (($x794 (>= ?x1272 ?x1134)))
    (let (($x588 (<= V2_0 E1_!436)))
    (let (($x747 (not $x588)))
    (let (($x848 (and $x747 $x794 $x1116 $x1117 $x1081 $x1128)))
    (let (($x592 (not $x848)))
    (let (($x804 (not MW_S1_V4)))
    (let (($x1150 (or $x804 W_S1_V4)))
    (let (($x1171 (not MW_S1_V2)))
    (let (($x796 (not MW_S1_V1)))
    (let (($x761 (or $x796 W_S1_V1)))
    (let (($x806 (= E1_!452 E1_!447)))
    (let ((?x750 (ite MW_S1_V4 S1_V4_!446 V4_0)))
    (let (($x586 (= ?x881 ?x750)))
    (let (($x76 (not R_E1_V4)))
    (let (($x825 (or $x76 $x586)))
    (let ((?x768 (ite MW_S1_V2 S1_V2_!445 V2_0)))
    (let (($x782 (= ?x584 ?x768)))
    (let (($x74 (not R_E1_V2)))
    (let (($x799 (or $x74 $x782)))
    (let ((?x560 (ite MW_S1_V3 S1_V3_!444 V3_0)))
    (let (($x1039 (= ?x1198 ?x560)))
    (let (($x72 (not R_E1_V3)))
    (let (($x1285 (or $x72 $x1039)))
    (let (($x1309 (and $x1285 $x799 $x825)))
    (let (($x1093 (not $x1309)))
    (let (($x736 (or $x1093 $x806)))
    (let (($x603 (= E1_!452 E1_!442)))
    (let (($x1268 (= ?x881 V4_0)))
    (let (($x1020 (or $x76 $x1268)))
    (let (($x908 (= ?x584 V2_0)))
    (let (($x1368 (or $x74 $x908)))
    (let (($x733 (= ?x1198 V3_0)))
    (let (($x941 (or $x72 $x733)))
    (let (($x910 (and $x941 $x1368 $x1020)))
    (let (($x824 (not $x910)))
    (let (($x863 (or $x824 $x603)))
    (let (($x1242 (= E1_!452 E1_!441)))
    (let (($x834 (or $x824 $x1242)))
    (let (($x984 (= E1_!452 E1_!436)))
    (let (($x875 (or $x824 $x984)))
    (let (($x992 (= E1_!447 E1_!442)))
    (let (($x1003 (= ?x750 V4_0)))
    (let (($x963 (or $x76 $x1003)))
    (let (($x962 (= ?x768 V2_0)))
    (let (($x976 (or $x74 $x962)))
    (let (($x987 (= ?x560 V3_0)))
    (let (($x970 (or $x72 $x987)))
    (let (($x1041 (and $x970 $x976 $x963)))
    (let (($x1046 (not $x1041)))
    (let (($x1304 (or $x1046 $x992)))
    (let (($x740 (= E1_!441 E1_!447)))
    (let (($x1282 (= V4_0 ?x750)))
    (let (($x1346 (or $x76 $x1282)))
    (let (($x1358 (= V2_0 ?x768)))
    (let (($x1018 (or $x74 $x1358)))
    (let (($x1347 (= V3_0 ?x560)))
    (let (($x1240 (or $x72 $x1347)))
    (let (($x829 (and $x1240 $x1018 $x1346)))
    (let (($x1264 (not $x829)))
    (let (($x1277 (or $x1264 $x740)))
    (let (($x930 (= E1_!441 E1_!442)))
    (let (($x1313 (= E1_!441 E1_!436)))
    (let (($x575 (= E1_!436 E1_!447)))
    (let (($x1058 (or $x1264 $x575)))
    (let (($x1253 (= E1_!436 E1_!442)))
    (let (($x1086 (= S1_V2_!450 S1_V2_!445)))
    (let (($x108 (not R_S1_V4)))
    (let (($x943 (or $x108 $x1003)))
    (let (($x106 (not R_S1_V2)))
    (let (($x1259 (or $x106 $x962)))
    (let (($x104 (not R_S1_V3)))
    (let (($x935 (or $x104 $x987)))
    (let (($x1370 (= ?x1113 V2_0)))
    (let (($x102 (not R_S1_V1)))
    (let (($x1371 (or $x102 $x1370)))
    (let (($x600 (and $x1371 $x935 $x1259 $x943)))
    (let (($x836 (not $x600)))
    (let (($x1244 (or $x836 $x1086)))
    (let (($x832 (= S1_V2_!439 S1_V2_!450)))
    (let (($x1263 (or $x108 $x1282)))
    (let (($x907 (or $x106 $x1358)))
    (let (($x746 (or $x104 $x1347)))
    (let (($x1367 (= E1_!436 ?x1114)))
    (let (($x1053 (or $x102 $x1367)))
    (let (($x1210 (and $x1053 $x746 $x907 $x1263)))
    (let (($x1174 (not $x1210)))
    (let (($x1247 (or $x1174 $x832)))
    (let (($x608 (= S1_V2_!439 S1_V2_!445)))
    (let (($x820 (= E1_!436 ?x1130)))
    (let (($x1317 (or $x102 $x820)))
    (let (($x1366 (not $x1317)))
    (let (($x1249 (or $x1366 $x608)))
    (let (($x1345 (= S1_V1_!448 S1_V1_!443)))
    (let (($x1338 (or $x836 $x1345)))
    (let (($x1079 (= S1_V1_!437 S1_V1_!448)))
    (let (($x1258 (or $x1174 $x1079)))
    (let (($x1068 (= S1_V1_!437 S1_V1_!443)))
    (let (($x809 (or $x1366 $x1068)))
    (let (($x1087 (= S1_V4_!451 S1_V4_!440)))
    (let ((?x1182 (+ 1 E1_!436)))
    (let (($x766 (= ?x1113 ?x1182)))
    (let (($x1284 (or $x102 $x766)))
    (let (($x1319 (and $x1284 $x935 $x1259 $x943)))
    (let (($x1343 (not $x1319)))
    (let (($x1267 (or $x1343 $x1087)))
    (let (($x1063 (= S1_V4_!446 S1_V4_!451)))
    (let (($x1038 (= V2_0 ?x1113)))
    (let (($x1349 (or $x102 $x1038)))
    (let (($x1372 (and $x1349 $x746 $x907 $x1263)))
    (let (($x1096 (not $x1372)))
    (let (($x1187 (or $x1096 $x1063)))
    (let (($x1219 (= S1_V4_!446 S1_V4_!440)))
    (let (($x1357 (= V2_0 ?x1182)))
    (let (($x1355 (or $x102 $x1357)))
    (let (($x1324 (not $x1355)))
    (let (($x1353 (or $x1324 $x1219)))
    (let (($x1294 (= S1_V3_!444 S1_V3_!449)))
    (let (($x1099 (or $x1096 $x1294)))
    (let (($x1295 (= S1_V3_!438 S1_V3_!449)))
    (let (($x1351 (or $x1174 $x1295)))
    (let (($x1302 (= S1_V3_!438 S1_V3_!444)))
    (let (($x1097 (or $x1366 $x1302)))
    (let
    (($x915
      (and $x1097 $x1351 $x1099 $x1353 $x1187 $x1267 $x809 $x1258 $x1338
      $x1249 $x1247 $x1244 $x1253 $x1058 $x1313 $x930 $x1277 $x1304 $x875
      $x834 $x863 $x736 $x761 $x1171 $x1150)))
    (let (($x864 (not $x915))) (or $x864 $x592 $x1112)))))))))))))))))))))))))))))))))))))))))))))))))))))))))))))))))))))))))))))))))))))))))))))))))))))))))))))))))))))))))))))))))))))))))))))))))))))))))))
 (let (($x30 (and W_S1_V4 R_E1_V4)))
 (let (($x949 (or R_E1_V3 $x30)))
 (let (($x1246 (not $x949)))
 (let (($x1308 (= DISJ_W_S1_R_E1 $x1246)))
 (let (($x18 (and W_S1_V4 R_S1_V4)))
 (let (($x10 (and W_S1_V1 R_S1_V1)))
 (let (($x841 (or $x10 R_S1_V3 $x18)))
 (let (($x555 (not $x841)))
 (let (($x1208 (= DISJ_W_S1_R_S1 $x555)))
 (let (($x102 (not R_S1_V1)))
 (let (($x743 (and $x102 DISJ_W_S1_R_E1)))
 (let (($x518 (not W_S1_V1)))
 (let (($x923 (and DISJ_W_S1_R_S1 DISJ_W_S1_R_E1)))
 (let (($x896 (or $x923 $x518 $x743)))
 (let (($x522 (not W_S1_V2)))
 (let (($x70 (not R_E1_V1)))
 (and $x70 $x522 $x896 W_S1_V3 $x1208 $x1308 $x1318)))))))))))))))))))
(assert (let (($x923 (and DISJ_W_S1_R_S1 DISJ_W_S1_R_E1))) (not $x923)))
(check-sat)
(exit)

